benchmark_str_length/p2_10_9-4.dzn
Alphabet = {A,C,G,T};
ns = 10;
nc = 9;
sl = 9;
neighbours = [| I(C),I(A),I(C),I(C),I(C),I(A),I(T),I(G),Null | I(A),I(G),I(G),I(T),I(A),I(C),I(C),I(G),I(G) | I(A),I(G),I(T),I(C),I(G),I(C),I(C),I(T),I(C) | I(T),I(T),I(C),I(T),I(T),Null,Null,Null,Null | I(G),I(T),I(G),Null,Null,Null,Null,Null,Null | I(G),I(T),I(C),I(C),I(T),I(G),I(C),I(A),I(G) | I(A),I(A),I(C),I(C),I(C),I(C),I(T),I(C),I(G) | I(C),Null,Null,Null,Null,Null,Null,Null,Null | Null,Null,Null,Null,Null,Null,Null,Null,Null | I(A),I(G),I(A),I(A),I(C),I(C),I(T),I(G),Null |];
