benchmark_str_length/p2_10_9-4.txt
{
	"num_strings": 10,
	"alphabet": "ACGT",
	"strings": [
		"CACCCATG",
		"AGGTACCGG",
		"AGTCGCCTC",
		"TTCTT",
		"GTG",
		"GTCCTGCAG",
		"AACCCCTCG",
		"C",
		"",
		"AGAACCTG"
	],
	"str_length":[8,9,9,5,3,9,9,1,0,8]
}